p cnf 60 65
-1 -2 -3 60 0 
-2 60 0 
-4 -2 -5 60 0 
-6 -7 60 0 
-4 -8 60 0 
-7 60 0 
-9 60 0 
-10 21 44 -11 14 45 49 56 60 0 
-12 -13 60 0 
-2 -14 11 45 49 56 60 0 
-2 -15 -13 60 0 
-16 -17 30 43 -18 -13 60 0 
-2 -14 11 45 49 56 60 0 
-2 -19 60 0 
-20 -21 10 44 60 0 
-21 10 44 60 0 
-22 60 0 
-23 -24 60 0 
-25 -26 31 -24 60 0 
-27 -28 60 0 
-29 41 -28 60 0 
-30 17 43 -28 60 0 
-29 41 -31 26 -28 60 0 
-25 60 0 
-20 -2 -32 60 0 
-33 -23 -34 60 0 
-35 60 0 
-36 60 0 
-37 60 0 
-30 17 43 60 0 
-38 60 0 
-39 59 60 0 
-40 60 0 
-41 29 60 0 
-42 58 60 0 
-43 17 30 60 0 
-2 -44 10 21 60 0 
-2 -45 11 14 49 56 60 0 
-2 -14 11 45 49 56 60 0 
-2 -45 11 14 49 56 60 0 
-33 -25 -7 60 0 
-46 60 0 
-47 60 0 
-48 60 0 
-10 21 44 -11 14 45 49 56 60 0 
-25 -26 31 -28 60 0 
-23 -28 60 0 
-27 -49 11 14 45 56 60 0 
-2 -45 11 14 49 56 60 0 
-50 -51 60 0 
-52 -13 60 0 
-30 17 43 -52 60 0 
-10 21 44 -11 14 45 49 56 60 0 
-53 60 0 
-23 -53 60 0 
-25 -26 31 -53 60 0 
-2 -15 -53 60 0 
-27 -49 11 14 45 56 60 0 
-46 -28 60 0 
-54 -28 60 0 
-55 -28 60 0 
-56 11 14 45 49 60 0 
-57 60 0 
-58 42 60 0 
-4 -59 39 60 0 
